c CNF file corresponding to a (partial) station packing problem.
p cnf 1274 243
1 2 3 4 5 6 7 8 9 10 11 12 13 14 0
-1 -2 0
-1 -3 0
-1 -4 0
-1 -5 0
-1 -6 0
-1 -7 0
-1 -8 0
-1 -9 0
-1 -10 0
-1 -11 0
-1 -12 0
-1 -13 0
-1 -14 0
-2 -3 0
-2 -4 0
-2 -5 0
-2 -6 0
-2 -7 0
-2 -8 0
-2 -9 0
-2 -10 0
-2 -11 0
-2 -12 0
-2 -13 0
-2 -14 0
-3 -4 0
-3 -5 0
-3 -6 0
-3 -7 0
-3 -8 0
-3 -9 0
-3 -10 0
-3 -11 0
-3 -12 0
-3 -13 0
-3 -14 0
-4 -5 0
-4 -6 0
-4 -7 0
-4 -8 0
-4 -9 0
-4 -10 0
-4 -11 0
-4 -12 0
-4 -13 0
-4 -14 0
-5 -6 0
-5 -7 0
-5 -8 0
-5 -9 0
-5 -10 0
-5 -11 0
-5 -12 0
-5 -13 0
-5 -14 0
-6 -7 0
-6 -8 0
-6 -9 0
-6 -10 0
-6 -11 0
-6 -12 0
-6 -13 0
-6 -14 0
-7 -8 0
-7 -9 0
-7 -10 0
-7 -11 0
-7 -12 0
-7 -13 0
-7 -14 0
-8 -9 0
-8 -10 0
-8 -11 0
-8 -12 0
-8 -13 0
-8 -14 0
-9 -10 0
-9 -11 0
-9 -12 0
-9 -13 0
-9 -14 0
-10 -11 0
-10 -12 0
-10 -13 0
-10 -14 0
-11 -12 0
-11 -13 0
-11 -14 0
-12 -13 0
-12 -14 0
-13 -14 0
-4 -1264 0
-1266 -6 0
-8 -1268 0
-1265 -5 0
-3 -1262 0
-1273 -13 0
-1269 -9 0
-1261 -2 0
-10 -1270 0
-1271 -11 0
-1 -1260 0
-7 -1267 0
-12 -1272 0
-14 -1274 0
1258 1259 1260 1261 1262 1263 1264 1265 1266 1267 1268 1269 1270 1271 1272 1273 1274 0
-1258 -1259 0
-1258 -1260 0
-1258 -1261 0
-1258 -1262 0
-1258 -1263 0
-1258 -1264 0
-1258 -1265 0
-1258 -1266 0
-1258 -1267 0
-1258 -1268 0
-1258 -1269 0
-1258 -1270 0
-1258 -1271 0
-1258 -1272 0
-1258 -1273 0
-1258 -1274 0
-1259 -1260 0
-1259 -1261 0
-1259 -1262 0
-1259 -1263 0
-1259 -1264 0
-1259 -1265 0
-1259 -1266 0
-1259 -1267 0
-1259 -1268 0
-1259 -1269 0
-1259 -1270 0
-1259 -1271 0
-1259 -1272 0
-1259 -1273 0
-1259 -1274 0
-1260 -1261 0
-1260 -1262 0
-1260 -1263 0
-1260 -1264 0
-1260 -1265 0
-1260 -1266 0
-1260 -1267 0
-1260 -1268 0
-1260 -1269 0
-1260 -1270 0
-1260 -1271 0
-1260 -1272 0
-1260 -1273 0
-1260 -1274 0
-1261 -1262 0
-1261 -1263 0
-1261 -1264 0
-1261 -1265 0
-1261 -1266 0
-1261 -1267 0
-1261 -1268 0
-1261 -1269 0
-1261 -1270 0
-1261 -1271 0
-1261 -1272 0
-1261 -1273 0
-1261 -1274 0
-1262 -1263 0
-1262 -1264 0
-1262 -1265 0
-1262 -1266 0
-1262 -1267 0
-1262 -1268 0
-1262 -1269 0
-1262 -1270 0
-1262 -1271 0
-1262 -1272 0
-1262 -1273 0
-1262 -1274 0
-1263 -1264 0
-1263 -1265 0
-1263 -1266 0
-1263 -1267 0
-1263 -1268 0
-1263 -1269 0
-1263 -1270 0
-1263 -1271 0
-1263 -1272 0
-1263 -1273 0
-1263 -1274 0
-1264 -1265 0
-1264 -1266 0
-1264 -1267 0
-1264 -1268 0
-1264 -1269 0
-1264 -1270 0
-1264 -1271 0
-1264 -1272 0
-1264 -1273 0
-1264 -1274 0
-1265 -1266 0
-1265 -1267 0
-1265 -1268 0
-1265 -1269 0
-1265 -1270 0
-1265 -1271 0
-1265 -1272 0
-1265 -1273 0
-1265 -1274 0
-1266 -1267 0
-1266 -1268 0
-1266 -1269 0
-1266 -1270 0
-1266 -1271 0
-1266 -1272 0
-1266 -1273 0
-1266 -1274 0
-1267 -1268 0
-1267 -1269 0
-1267 -1270 0
-1267 -1271 0
-1267 -1272 0
-1267 -1273 0
-1267 -1274 0
-1268 -1269 0
-1268 -1270 0
-1268 -1271 0
-1268 -1272 0
-1268 -1273 0
-1268 -1274 0
-1269 -1270 0
-1269 -1271 0
-1269 -1272 0
-1269 -1273 0
-1269 -1274 0
-1270 -1271 0
-1270 -1272 0
-1270 -1273 0
-1270 -1274 0
-1271 -1272 0
-1271 -1273 0
-1271 -1274 0
-1272 -1273 0
-1272 -1274 0
-1273 -1274 0
